Reading instance from file data/g03.dat
Number of nodes: 51
Number of edges: 176
initialize CPLEX ... done.
Calling CPLEX solve ...
Lazy constraint(s) or lazy constraint callback is present.
    Disabling dual reductions (CPX_PARAM_REDUCE) in presolve.
    Disabling non-linear reductions (CPX_PARAM_PRELINEAR) in presolve.
         Disabling repeat represolve because of lazy constraint/incumbent callback.
Tried aggregator 3 times.
MIP Presolve eliminated 227 rows and 226 columns.
MIP Presolve modified 906 coefficients.
Aggregator did 51 substitutions.
Reduced MIP has 228 rows, 477 columns, and 1508 nonzeros.
Reduced MIP has 477 binaries, 0 generals, 0 SOSs, and 0 indicators.
Presolve time = 0.00 sec. (2.35 ticks)
Probing time = 0.00 sec. (0.50 ticks)
Clique table members: 727.
MIP emphasis: balance optimality and feasibility.
MIP search method: traditional branch-and-cut.
Parallel mode: none, using 1 thread.
Root relaxation solution time = 0.00 sec. (0.49 ticks)

        Nodes                                         Cuts/
   Node  Left     Objective  IInf  Best Integer    Best Bound    ItCnt     Gap         Variable B NodeID Parent  Depth

      0     0      312.0000    23                    312.0000       16         
      0     0      320.0117    29                    Cuts: 41       72         
      0     0      575.6389    29                    Cuts: 46      106         
      0     0      646.9924    29                    Cuts: 24      136         
      0     0      700.5833    13                    Cuts: 18      157         
      0     0      710.0000     6                     Cuts: 8      159         
      0     0      710.0000     6                     Cuts: 3      160         
      0     0      710.8750    35                 ZeroHalf: 2      164         
      0     0      717.5000    24                     Cuts: 9      176         
      0     0      724.2500    31                 ZeroHalf: 6      180         
*     0     0      integral     0      725.0000       Cuts: 8      182    0.00%
      0     0        cutoff            725.0000      725.0000      182    0.00%                        0             0
Elapsed time = 0.20 sec. (53.46 ticks, tree = 0.01 MB, solutions = 1)

GUB cover cuts applied:  7
Clique cuts applied:  64
Cover cuts applied:  5
Flow cuts applied:  1
Zero-half cuts applied:  11
Lift and project cuts applied:  4
Gomory fractional cuts applied:  14
User cuts applied:  2

Root node processing (before b&c):
  Real time             =    0.20 sec. (53.48 ticks)
Sequential b&c:
  Real time             =    0.00 sec. (0.00 ticks)
                          ------------
Total (root+branch&cut) =    0.20 sec. (53.48 ticks)
CPLEX finished.

CPLEX status: Optimal
Branch-and-Bound nodes: 0
Objective value: 725
CPU time: 0.18

Reading instance from file data/g03.dat
Number of nodes: 51
Number of edges: 176
initialize CPLEX ... done.
Calling CPLEX solve ...
Lazy constraint(s) or lazy constraint callback is present.
    Disabling dual reductions (CPX_PARAM_REDUCE) in presolve.
    Disabling non-linear reductions (CPX_PARAM_PRELINEAR) in presolve.
         Disabling repeat represolve because of lazy constraint/incumbent callback.
Tried aggregator 3 times.
MIP Presolve eliminated 227 rows and 226 columns.
MIP Presolve modified 906 coefficients.
Aggregator did 51 substitutions.
Reduced MIP has 228 rows, 477 columns, and 1508 nonzeros.
Reduced MIP has 477 binaries, 0 generals, 0 SOSs, and 0 indicators.
Presolve time = 0.00 sec. (2.35 ticks)
Probing time = 0.00 sec. (0.50 ticks)
Clique table members: 727.
MIP emphasis: balance optimality and feasibility.
MIP search method: traditional branch-and-cut.
Parallel mode: none, using 1 thread.
Root relaxation solution time = 0.00 sec. (0.49 ticks)

        Nodes                                         Cuts/
   Node  Left     Objective  IInf  Best Integer    Best Bound    ItCnt     Gap         Variable B NodeID Parent  Depth

      0     0      312.0000    23                    312.0000       16         
      0     0      320.0117    29                    Cuts: 41       72         
      0     0      575.6389    29                    Cuts: 46      106         
      0     0      646.9924    29                    Cuts: 24      136         
      0     0      700.5833    13                    Cuts: 18      157         
      0     0      710.0000     6                     Cuts: 8      159         
      0     0      710.0000     6                     Cuts: 3      160         
      0     0      710.8750    35                 ZeroHalf: 2      164         
      0     0      717.5000    24                     Cuts: 9      176         
      0     0      724.2500    31                 ZeroHalf: 6      180         
*     0     0      integral     0      725.0000       Cuts: 8      182    0.00%
      0     0        cutoff            725.0000      725.0000      182    0.00%                        0             0
Elapsed time = 0.21 sec. (53.46 ticks, tree = 0.01 MB, solutions = 1)

GUB cover cuts applied:  7
Clique cuts applied:  64
Cover cuts applied:  5
Flow cuts applied:  1
Zero-half cuts applied:  11
Lift and project cuts applied:  4
Gomory fractional cuts applied:  14
User cuts applied:  2

Root node processing (before b&c):
  Real time             =    0.21 sec. (53.48 ticks)
Sequential b&c:
  Real time             =    0.00 sec. (0.00 ticks)
                          ------------
Total (root+branch&cut) =    0.21 sec. (53.48 ticks)
CPLEX finished.

CPLEX status: Optimal
Branch-and-Bound nodes: 0
Objective value: 725
CPU time: 0.2
Added inequalities: 2

